
Gurobi 9.0.1 (linux64) logging started Thu Apr 30 05:57:45 2020

Gurobi Optimizer version 9.0.1 build v9.0.1rc0 (linux64)
Optimize a model with 860 rows, 990 columns and 6912 nonzeros
Model fingerprint: 0x036ac1c3
Variable types: 0 continuous, 990 integer (980 binary)
Coefficient statistics:
  Matrix range     [1e+00, 5e+00]
  Objective range  [2e+00, 1e+02]
  Bounds range     [1e+00, 1e+00]
  RHS range        [1e+00, 1e+00]

User MIP start produced solution with objective 601 (0.00s)
Loaded user MIP start with objective 601

Presolve removed 182 rows and 348 columns
Presolve time: 0.06s
Presolved: 678 rows, 642 columns, 4950 nonzeros
Variable types: 0 continuous, 642 integer (634 binary)

Root relaxation: objective 4.448466e+02, 587 iterations, 0.03 seconds

    Nodes    |    Current Node    |     Objective Bounds      |     Work
 Expl Unexpl |  Obj  Depth IntInf | Incumbent    BestBd   Gap | It/Node Time

     0     0  444.84665    0  268  601.00000  444.84665  26.0%     -    0s
     0     0  462.53021    0  268  601.00000  462.53021  23.0%     -    0s
     0     0  462.97696    0  273  601.00000  462.97696  23.0%     -    0s
     0     0  463.88567    0  275  601.00000  463.88567  22.8%     -    0s
     0     0  463.92889    0  273  601.00000  463.92889  22.8%     -    0s
     0     0  463.92889    0  275  601.00000  463.92889  22.8%     -    0s
     0     0  471.82533    0  266  601.00000  471.82533  21.5%     -    0s
     0     0  472.97062    0  300  601.00000  472.97062  21.3%     -    0s
     0     0  473.15434    0  299  601.00000  473.15434  21.3%     -    0s
     0     0  473.16436    0  297  601.00000  473.16436  21.3%     -    0s
     0     0  484.50065    0  292  601.00000  484.50065  19.4%     -    0s
     0     0  485.04306    0  279  601.00000  485.04306  19.3%     -    0s
     0     0  485.27138    0  290  601.00000  485.27138  19.3%     -    0s
     0     0  485.33308    0  285  601.00000  485.33308  19.2%     -    0s
     0     0  485.33744    0  286  601.00000  485.33744  19.2%     -    0s
     0     0  492.04859    0  283  601.00000  492.04859  18.1%     -    1s
     0     0  492.53109    0  301  601.00000  492.53109  18.0%     -    1s
     0     0  492.92685    0  304  601.00000  492.92685  18.0%     -    1s
     0     0  492.97848    0  306  601.00000  492.97848  18.0%     -    1s
     0     0  493.00283    0  305  601.00000  493.00283  18.0%     -    1s
     0     0  495.49851    0  313  601.00000  495.49851  17.6%     -    1s
     0     0  496.43120    0  314  601.00000  496.43120  17.4%     -    1s
     0     0  496.54888    0  307  601.00000  496.54888  17.4%     -    1s
     0     0  496.55076    0  314  601.00000  496.55076  17.4%     -    1s
     0     0  498.61248    0  304  601.00000  498.61248  17.0%     -    1s
     0     0  498.78300    0  302  601.00000  498.78300  17.0%     -    1s
     0     0  498.85309    0  301  601.00000  498.85309  17.0%     -    1s
     0     0  498.86508    0  305  601.00000  498.86508  17.0%     -    1s
     0     0  501.07127    0  316  601.00000  501.07127  16.6%     -    1s
     0     0  501.23039    0  316  601.00000  501.23039  16.6%     -    1s
     0     0  501.25922    0  316  601.00000  501.25922  16.6%     -    1s
     0     0  503.02153    0  312  601.00000  503.02153  16.3%     -    1s
     0     0  503.17354    0  317  601.00000  503.17354  16.3%     -    1s
     0     0  503.19566    0  317  601.00000  503.19566  16.3%     -    1s
     0     0  503.95051    0  322  601.00000  503.95051  16.1%     -    1s
     0     0  504.03588    0  316  601.00000  504.03588  16.1%     -    1s
     0     0  504.05274    0  320  601.00000  504.05274  16.1%     -    1s
     0     0  505.05909    0  317  601.00000  505.05909  16.0%     -    1s
     0     0  505.15411    0  319  601.00000  505.15411  15.9%     -    1s
     0     0  505.15902    0  321  601.00000  505.15902  15.9%     -    1s
     0     0  505.58359    0  320  601.00000  505.58359  15.9%     -    1s
     0     0  505.58359    0  320  601.00000  505.58359  15.9%     -    2s
     0     0  505.76650    0  284  601.00000  505.76650  15.8%     -    2s
H    0     0                     577.0000000  505.76650  12.3%     -    2s
H    0     0                     565.0000000  505.76650  10.5%     -    2s
     0     0  505.76650    0  287  565.00000  505.76650  10.5%     -    2s
     0     0  505.76650    0  298  565.00000  505.76650  10.5%     -    2s
     0     0  505.76650    0  302  565.00000  505.76650  10.5%     -    2s
     0     0  505.76650    0  298  565.00000  505.76650  10.5%     -    2s
     0     0  505.76650    0  299  565.00000  505.76650  10.5%     -    2s
     0     0  505.76650    0  310  565.00000  505.76650  10.5%     -    2s
H    0     0                     563.0000000  505.76650  10.2%     -    2s
     0     0  505.76650    0  318  563.00000  505.76650  10.2%     -    2s
     0     0  505.76650    0  318  563.00000  505.76650  10.2%     -    2s
     0     0  507.07024    0  320  563.00000  507.07024  9.93%     -    2s
     0     0  508.12928    0  301  563.00000  508.12928  9.75%     -    2s
     0     0  508.19983    0  301  563.00000  508.19983  9.73%     -    2s
     0     0  508.20312    0  306  563.00000  508.20312  9.73%     -    2s
     0     0  511.18805    0  312  563.00000  511.18805  9.20%     -    3s
     0     0  511.45252    0  288  563.00000  511.45252  9.16%     -    3s
     0     0  511.51549    0  311  563.00000  511.51549  9.14%     -    3s
     0     0  511.51758    0  312  563.00000  511.51758  9.14%     -    3s
     0     0  512.27403    0  315  563.00000  512.27403  9.01%     -    3s
H    0     0                     549.0000000  512.27403  6.69%     -    3s
     0     0  512.30770    0  312  549.00000  512.30770  6.68%     -    3s
     0     0  512.99515    0  305  549.00000  512.99515  6.56%     -    3s
     0     0  513.00899    0  307  549.00000  513.00899  6.56%     -    3s
     0     0  513.93850    0  315  549.00000  513.93850  6.39%     -    3s
     0     0  514.02849    0  320  549.00000  514.02849  6.37%     -    3s
     0     0  514.10963    0  322  549.00000  514.10963  6.36%     -    3s
     0     0  514.12045    0  322  549.00000  514.12045  6.35%     -    3s
     0     0  514.53387    0  315  549.00000  514.53387  6.28%     -    3s
     0     0  514.53387    0  315  549.00000  514.53387  6.28%     -    3s
H    0     0                     540.0000000  515.34223  4.57%     -    3s
     0     0  515.34223    0  259  540.00000  515.34223  4.57%     -    3s
     0     0  515.34223    0  264  540.00000  515.34223  4.57%     -    3s
     0     0  521.85650    0  249  540.00000  521.85650  3.36%     -    4s
     0     0  522.11189    0  245  540.00000  522.11189  3.31%     -    4s
     0     0  522.13525    0  248  540.00000  522.13525  3.31%     -    4s
     0     0  527.07487    0  274  540.00000  527.07487  2.39%     -    4s
     0     0  528.95602    0  276  540.00000  528.95602  2.05%     -    4s
     0     0  529.03950    0  286  540.00000  529.03950  2.03%     -    4s
     0     0  529.03996    0  280  540.00000  529.03996  2.03%     -    4s
     0     0  531.77175    0  180  540.00000  531.77175  1.52%     -    4s
     0     0  532.04214    0  209  540.00000  532.04214  1.47%     -    4s
     0     0  532.08927    0  190  540.00000  532.08927  1.46%     -    4s
     0     0  532.11079    0  171  540.00000  532.11079  1.46%     -    4s
     0     0  532.47385    0  200  540.00000  532.47385  1.39%     -    4s
     0     0  532.47385    0  176  540.00000  532.47385  1.39%     -    4s
H    0     0                     538.0000000  532.47385  1.03%     -    4s
     0     0  532.74073    0  174  538.00000  532.74073  0.98%     -    4s
     0     0  532.79321    0  169  538.00000  532.79321  0.97%     -    4s
     0     0  532.79531    0  168  538.00000  532.79531  0.97%     -    4s
     0     0  532.79549    0  168  538.00000  532.79549  0.97%     -    4s
     0     0  532.88028    0  193  538.00000  532.88028  0.95%     -    4s
     0     0  532.88388    0  189  538.00000  532.88388  0.95%     -    4s
     0     0  532.88576    0  188  538.00000  532.88576  0.95%     -    4s
     0     0  532.88586    0  188  538.00000  532.88586  0.95%     -    4s
     0     0  532.91464    0  188  538.00000  532.91464  0.95%     -    4s
     0     0  532.92046    0  179  538.00000  532.92046  0.94%     -    4s
     0     0  532.92265    0  191  538.00000  532.92265  0.94%     -    4s
     0     0  532.93266    0  180  538.00000  532.93266  0.94%     -    4s
     0     0  532.93386    0  191  538.00000  532.93386  0.94%     -    4s
     0     0  532.93443    0  187  538.00000  532.93443  0.94%     -    4s
     0     0  533.00095    0  174  538.00000  533.00095  0.93%     -    4s
     0     0  533.00919    0  178  538.00000  533.00919  0.93%     -    4s
     0     0  533.01199    0  186  538.00000  533.01199  0.93%     -    4s
     0     0  533.01230    0  188  538.00000  533.01230  0.93%     -    4s
     0     0  533.02147    0  188  538.00000  533.02147  0.93%     -    4s
     0     0  533.02382    0  188  538.00000  533.02382  0.92%     -    4s
     0     0  533.02401    0  188  538.00000  533.02401  0.92%     -    4s
     0     0  533.05043    0  182  538.00000  533.05043  0.92%     -    4s
     0     0  533.05869    0  186  538.00000  533.05869  0.92%     -    4s
     0     0  533.06273    0  195  538.00000  533.06273  0.92%     -    4s
     0     0  533.06493    0  188  538.00000  533.06493  0.92%     -    4s
     0     0  533.06563    0  189  538.00000  533.06563  0.92%     -    4s
     0     0  533.07492    0  195  538.00000  533.07492  0.92%     -    4s
     0     0  533.07761    0  202  538.00000  533.07761  0.91%     -    4s
     0     0  533.07771    0  189  538.00000  533.07771  0.91%     -    4s
     0     0  533.08461    0  201  538.00000  533.08461  0.91%     -    4s
     0     0  533.08461    0  199  538.00000  533.08461  0.91%     -    4s
     0     0  533.09503    0  181  538.00000  533.09503  0.91%     -    5s
     0     0  533.09503    0  184  538.00000  533.09503  0.91%     -    5s
     0     0  533.09503    0  177  538.00000  533.09503  0.91%     -    5s
     0     0  533.09503    0  171  538.00000  533.09503  0.91%     -    5s
     0     0  533.10072    0  167  538.00000  533.10072  0.91%     -    5s
     0     0  533.10603    0  181  538.00000  533.10603  0.91%     -    5s
     0     0  533.10910    0  182  538.00000  533.10910  0.91%     -    5s
     0     0  533.10952    0  181  538.00000  533.10952  0.91%     -    5s
     0     0  533.13712    0  176  538.00000  533.13712  0.90%     -    5s
     0     0  533.14573    0  183  538.00000  533.14573  0.90%     -    5s
     0     0  533.14675    0  181  538.00000  533.14675  0.90%     -    5s
     0     0  533.19549    0  168  538.00000  533.19549  0.89%     -    5s
     0     0  533.22386    0  172  538.00000  533.22386  0.89%     -    5s
     0     0  533.23258    0  170  538.00000  533.23258  0.89%     -    5s
     0     0  533.23337    0  179  538.00000  533.23337  0.89%     -    5s
     0     0  533.24877    0  172  538.00000  533.24877  0.88%     -    5s
     0     0  533.25141    0  168  538.00000  533.25141  0.88%     -    5s
     0     0  533.25334    0  185  538.00000  533.25334  0.88%     -    5s
     0     0  533.25396    0  176  538.00000  533.25396  0.88%     -    5s
     0     0  533.25579    0  185  538.00000  533.25579  0.88%     -    5s
     0     0  533.25579    0  185  538.00000  533.25579  0.88%     -    5s
     0     2  533.26337    0  185  538.00000  533.26337  0.88%     -    5s

Cutting planes:
  Clique: 3
  MIR: 27
  Zero half: 6
  Mod-K: 2
  RLT: 135

Explored 155 nodes (23505 simplex iterations) in 5.95 seconds
Thread count was 1 (of 40 available processors)

Solution count 7: 538 540 549 ... 601

Optimal solution found (tolerance 1.00e-04)
Best objective 5.380000000000e+02, best bound 5.380000000000e+02, gap 0.0000%

User-callback calls 2146, time in user-callback 0.00 sec
